(set-logic QF_BV)
(declare-fun _substvar_1120_ () (_ BitVec 8))
(declare-fun _substvar_1128_ () (_ BitVec 8))
(declare-fun _substvar_393_ () (_ BitVec 8))
(declare-fun _substvar_364_ () (_ BitVec 8))
(declare-fun _substvar_1144_ () (_ BitVec 33))
(declare-fun _substvar_362_ () (_ BitVec 8))
(declare-fun _substvar_424_ () (_ BitVec 8))
(declare-fun _substvar_1143_ () (_ BitVec 8))
(declare-fun _substvar_396_ () (_ BitVec 1))
(declare-fun _substvar_423_ () (_ BitVec 8))
(declare-fun _substvar_1140_ () (_ BitVec 8))
(declare-fun _substvar_1134_ () (_ BitVec 8))
(declare-fun _substvar_395_ () (_ BitVec 33))
(declare-fun _substvar_1122_ () (_ BitVec 8))
(assert (let ((?v_8 (= _substvar_1143_ _substvar_364_)) (?v_1 (= _substvar_1140_ _substvar_362_)) (?v_16 ((_ extract 31 24) _substvar_1144_)) (?v_18 ((_ extract 15 8) _substvar_1144_)) (?v_28 (= _substvar_424_ _substvar_364_)) (?v_21 (= _substvar_1128_ _substvar_362_)) (?v_32 ((_ extract 32 25) _substvar_395_)) (?v_35 ((_ extract 15 8) _substvar_395_))) (and ?v_8 (and true true ?v_1 true) ?v_8 true (= _substvar_1144_ (concat (concat (concat (concat (_ bv0 1) _substvar_1143_) (_ bv0 8)) _substvar_1140_) (_ bv0 8))) (and true (= _substvar_423_ ?v_16) true (= _substvar_1134_ ?v_18) true) (= _substvar_393_ (bvadd (bvadd (bvadd _substvar_423_ (_ bv0 8)) _substvar_1134_) (_ bv0 8))) ?v_28 true ?v_28 (and true true ?v_21 true) (= _substvar_395_ (concat (concat (concat (concat _substvar_424_ _substvar_396_) (_ bv0 8)) _substvar_1128_) (_ bv0 8))) (and (= _substvar_1122_ ?v_32) true true (= _substvar_1120_ ?v_35) true) (= (_ bv0 8) (bvadd (bvadd (bvadd _substvar_1122_ (_ bv0 8)) _substvar_1120_) (_ bv0 8))) true (not (= _substvar_393_ (_ bv0 8))))))
(check-sat)
(exit)
